data;

param n:=22;
param p:=4;
param r:=[1] 0 [2] 4 [3] 3 [4] 11 [5] 15 [6] 16 [7] 21 [8] 4 [9] 23 [10] 6 [11] 4 [12] 36 [13] 43 [14] 32 [15] 55 [16] 26 [17] 3 [18] 19 [19] 58 [20] 44 [21] 62 [22] 84 ;
param w:=[1] 41 [2] 35 [3] 92 [4] 56 [5] 81 [6] 100 [7] 13 [8] 82 [9] 46 [10] 91 [11] 3 [12] 80 [13] 44 [14] 8 [15] 45 [16] 93 [17] 88 [18] 22 [19] 84 [20] 21 [21] 15 [22] 75 ;

end;
